20191121 61600.00 61000.00
20180626 64600.00 62800.00
20171207 43634.76 38670.05
20170804 43634.76 38670.05
20170721 43634.76 38646.05
20170630 43564.76 38219.11
20170622 43564.76 38219.11
20170324 42534.76 38219.11
20161207 42534.76 38113.55
20160808 39076.55 38097.05
20160725 39076.55 37972.05
20160426 39076.55 37438.24
20160222 39076.55 37121.55
